NAME : XLTEST-n1561-k156
COMMENT : "This is not an official CVRPLIB BKS Challenge instance; the official ones will be released on Jan 12, 2026, 15:00:00 GMT."
TYPE : CVRP
DIMENSION : 1561
EDGE_WEIGHT_TYPE : EUC_2D
CAPACITY : 10
NODE_COORD_SECTION
1    0    0   
2    603  535 
3    589  536 
4    863  516 
5    700  426 
6    131  298 
7    995  404 
8    47   134 
9    805  865 
10   495  58  
11   674  735 
12   417  240 
13   831  269 
14   521  776 
15   874  621 
16   358  544 
17   914  957 
18   718  666 
19   936  925 
20   630  509 
21   613  411 
22   761  514 
23   92   158 
24   829  542 
25   763  522 
26   891  205 
27   268  383 
28   325  437 
29   495  808 
30   225  225 
31   320  22  
32   876  123 
33   731  792 
34   764  673 
35   472  598 
36   793  714 
37   619  857 
38   961  89  
39   730  608 
40   967  984 
41   133  0   
42   854  458 
43   340  686 
44   710  613 
45   277  187 
46   963  139 
47   583  228 
48   510  670 
49   153  899 
50   136  687 
51   600  393 
52   583  373 
53   23   279 
54   919  345 
55   762  347 
56   690  537 
57   250  567 
58   515  820 
59   936  287 
60   567  774 
61   808  98  
62   612  681 
63   846  656 
64   498  514 
65   555  756 
66   644  758 
67   43   111 
68   465  95  
69   871  4   
70   962  125 
71   987  440 
72   381  308 
73   167  484 
74   977  85  
75   635  529 
76   670  453 
77   135  65  
78   893  927 
79   145  95  
80   438  809 
81   180  717 
82   500  468 
83   542  151 
84   894  650 
85   419  752 
86   671  572 
87   674  531 
88   588  570 
89   578  769 
90   623  613 
91   956  126 
92   905  27  
93   374  630 
94   622  679 
95   75   477 
96   886  104 
97   962  79  
98   637  729 
99   713  903 
100  42   811 
101  56   643 
102  794  774 
103  748  661 
104  324  508 
105  761  409 
106  814  397 
107  766  906 
108  76   791 
109  644  948 
110  738  807 
111  696  561 
112  550  991 
113  539  496 
114  726  587 
115  735  683 
116  583  487 
117  791  796 
118  664  888 
119  370  732 
120  663  634 
121  493  515 
122  600  452 
123  847  782 
124  277  82  
125  664  746 
126  853  724 
127  432  37  
128  969  262 
129  682  467 
130  728  866 
131  140  491 
132  820  776 
133  978  973 
134  618  394 
135  442  965 
136  632  727 
137  601  776 
138  128  886 
139  787  594 
140  518  806 
141  501  763 
142  671  442 
143  547  744 
144  588  913 
145  36   470 
146  687  346 
147  4    369 
148  831  700 
149  951  119 
150  630  608 
151  648  307 
152  782  589 
153  594  498 
154  690  545 
155  639  444 
156  750  657 
157  489  891 
158  612  837 
159  650  713 
160  570  861 
161  312  762 
162  996  23  
163  634  510 
164  620  829 
165  476  536 
166  554  735 
167  774  233 
168  206  362 
169  686  926 
170  505  691 
171  903  337 
172  652  893 
173  601  470 
174  440  402 
175  521  788 
176  280  902 
177  341  862 
178  521  869 
179  800  273 
180  555  578 
181  738  359 
182  709  559 
183  598  775 
184  804  824 
185  664  533 
186  661  621 
187  138  145 
188  319  745 
189  334  64  
190  762  202 
191  599  422 
192  359  72  
193  852  770 
194  444  893 
195  555  773 
196  593  157 
197  634  738 
198  590  777 
199  649  634 
200  824  721 
201  354  22  
202  562  723 
203  101  213 
204  546  290 
205  986  230 
206  349  903 
207  975  56  
208  871  123 
209  946  197 
210  485  658 
211  380  677 
212  326  583 
213  629  507 
214  974  98  
215  542  806 
216  474  919 
217  517  748 
218  392  418 
219  690  847 
220  254  264 
221  627  472 
222  560  794 
223  359  680 
224  661  858 
225  602  600 
226  543  591 
227  819  645 
228  638  587 
229  554  865 
230  337  945 
231  579  718 
232  410  783 
233  875  295 
234  765  604 
235  694  600 
236  255  73  
237  700  458 
238  441  550 
239  632  783 
240  713  575 
241  596  589 
242  634  622 
243  946  396 
244  953  121 
245  960  18  
246  666  575 
247  480  75  
248  577  774 
249  691  303 
250  820  126 
251  959  478 
252  634  518 
253  473  689 
254  419  685 
255  370  815 
256  633  454 
257  727  404 
258  774  730 
259  621  770 
260  591  411 
261  909  68  
262  751  97  
263  644  759 
264  646  706 
265  939  27  
266  49   379 
267  552  675 
268  330  939 
269  261  806 
270  405  833 
271  432  694 
272  418  693 
273  634  520 
274  560  331 
275  693  630 
276  430  644 
277  533  546 
278  699  323 
279  291  739 
280  983  141 
281  394  931 
282  894  312 
283  664  147 
284  728  426 
285  354  84  
286  526  603 
287  835  543 
288  560  583 
289  460  584 
290  44   319 
291  215  422 
292  531  468 
293  917  430 
294  955  87  
295  913  178 
296  570  814 
297  859  554 
298  145  473 
299  395  36  
300  642  255 
301  521  393 
302  710  205 
303  668  504 
304  517  313 
305  538  229 
306  556  772 
307  615  522 
308  566  798 
309  607  637 
310  964  292 
311  713  944 
312  543  737 
313  577  836 
314  212  970 
315  377  448 
316  56   513 
317  642  792 
318  862  274 
319  900  523 
320  905  13  
321  989  181 
322  872  370 
323  508  441 
324  605  596 
325  474  761 
326  881  185 
327  105  502 
328  61   579 
329  639  124 
330  986  56  
331  469  852 
332  770  147 
333  630  763 
334  622  535 
335  63   688 
336  639  118 
337  788  424 
338  997  643 
339  533  801 
340  960  102 
341  469  748 
342  678  634 
343  610  506 
344  539  375 
345  615  314 
346  447  969 
347  655  862 
348  882  463 
349  409  463 
350  583  712 
351  394  572 
352  624  519 
353  683  581 
354  1000 181 
355  508  463 
356  762  185 
357  581  553 
358  693  239 
359  586  491 
360  326  806 
361  451  499 
362  3    366 
363  958  172 
364  641  781 
365  846  673 
366  724  422 
367  624  828 
368  678  371 
369  920  296 
370  409  242 
371  785  618 
372  642  845 
373  716  196 
374  607  440 
375  897  848 
376  263  674 
377  285  721 
378  839  597 
379  74   971 
380  915  19  
381  569  814 
382  604  763 
383  593  817 
384  889  490 
385  579  815 
386  16   420 
387  695  888 
388  644  814 
389  885  772 
390  262  290 
391  907  885 
392  548  591 
393  704  565 
394  853  54  
395  801  910 
396  742  283 
397  27   31  
398  742  753 
399  656  711 
400  531  415 
401  436  823 
402  953  139 
403  446  285 
404  751  392 
405  810  224 
406  774  654 
407  189  849 
408  531  570 
409  605  607 
410  715  387 
411  607  588 
412  222  348 
413  920  568 
414  561  887 
415  17   292 
416  387  691 
417  571  576 
418  992  32  
419  243  102 
420  392  581 
421  620  802 
422  765  796 
423  679  588 
424  643  544 
425  660  165 
426  521  934 
427  945  70  
428  268  539 
429  576  241 
430  260  378 
431  583  636 
432  417  747 
433  344  949 
434  812  795 
435  559  916 
436  29   873 
437  638  482 
438  674  724 
439  192  35  
440  908  502 
441  602  401 
442  812  423 
443  885  887 
444  695  929 
445  439  390 
446  560  786 
447  964  60  
448  497  20  
449  650  367 
450  467  716 
451  275  875 
452  990  422 
453  758  473 
454  869  202 
455  653  302 
456  747  738 
457  901  154 
458  607  442 
459  946  126 
460  657  497 
461  511  797 
462  992  53  
463  594  588 
464  208  484 
465  912  193 
466  197  916 
467  713  587 
468  520  113 
469  566  824 
470  806  294 
471  41   630 
472  622  515 
473  932  959 
474  633  810 
475  230  643 
476  681  829 
477  714  592 
478  99   156 
479  750  424 
480  661  441 
481  461  24  
482  984  101 
483  718  399 
484  80   718 
485  136  752 
486  638  827 
487  645  561 
488  702  105 
489  980  64  
490  643  16  
491  462  604 
492  28   580 
493  584  322 
494  848  87  
495  921  263 
496  482  547 
497  159  478 
498  967  413 
499  442  600 
500  135  719 
501  395  610 
502  654  722 
503  676  497 
504  622  525 
505  298  769 
506  546  398 
507  982  917 
508  682  484 
509  648  535 
510  498  672 
511  546  820 
512  780  819 
513  124  808 
514  596  465 
515  337  719 
516  621  587 
517  421  707 
518  449  825 
519  143  351 
520  184  857 
521  927  350 
522  70   880 
523  510  449 
524  297  148 
525  584  735 
526  750  763 
527  662  8   
528  887  109 
529  875  839 
530  89   208 
531  75   1000
532  629  695 
533  614  224 
534  579  981 
535  691  888 
536  249  973 
537  586  500 
538  849  878 
539  565  533 
540  678  673 
541  497  927 
542  600  343 
543  504  108 
544  665  907 
545  888  541 
546  561  746 
547  391  742 
548  506  534 
549  606  700 
550  809  816 
551  667  552 
552  501  785 
553  180  909 
554  850  5   
555  725  546 
556  836  48  
557  857  512 
558  729  139 
559  677  528 
560  342  630 
561  881  445 
562  884  926 
563  890  776 
564  926  80  
565  533  466 
566  546  402 
567  658  462 
568  616  851 
569  573  752 
570  559  996 
571  598  752 
572  412  712 
573  491  916 
574  466  535 
575  964  298 
576  729  752 
577  988  75  
578  577  613 
579  639  600 
580  881  144 
581  298  546 
582  888  190 
583  592  578 
584  615  394 
585  563  237 
586  838  337 
587  677  514 
588  583  964 
589  976  747 
590  591  792 
591  631  778 
592  622  571 
593  387  884 
594  162  611 
595  293  790 
596  116  859 
597  953  376 
598  963  51  
599  657  983 
600  526  414 
601  627  565 
602  630  803 
603  205  353 
604  584  608 
605  677  722 
606  491  861 
607  705  521 
608  9    18  
609  999  61  
610  789  565 
611  947  88  
612  325  729 
613  455  657 
614  543  907 
615  657  968 
616  416  986 
617  988  80  
618  585  854 
619  137  477 
620  946  51  
621  655  775 
622  623  997 
623  664  490 
624  42   905 
625  461  396 
626  609  655 
627  408  301 
628  599  812 
629  585  536 
630  531  564 
631  473  554 
632  569  458 
633  204  193 
634  632  764 
635  877  38  
636  509  12  
637  685  446 
638  723  887 
639  704  835 
640  858  591 
641  425  451 
642  667  844 
643  830  648 
644  621  796 
645  71   549 
646  663  504 
647  677  649 
648  786  847 
649  886  996 
650  228  620 
651  748  74  
652  966  17  
653  753  17  
654  961  76  
655  541  691 
656  968  10  
657  554  213 
658  979  650 
659  675  984 
660  788  492 
661  715  854 
662  835  88  
663  356  967 
664  604  779 
665  583  639 
666  640  457 
667  570  774 
668  554  628 
669  361  168 
670  876  428 
671  416  717 
672  149  319 
673  704  650 
674  653  73  
675  29   793 
676  708  543 
677  51   308 
678  416  119 
679  736  673 
680  682  549 
681  627  617 
682  871  248 
683  838  62  
684  652  632 
685  104  830 
686  656  661 
687  566  806 
688  936  283 
689  631  281 
690  962  445 
691  946  236 
692  584  524 
693  642  587 
694  590  760 
695  351  708 
696  25   635 
697  462  414 
698  699  177 
699  316  576 
700  691  732 
701  501  135 
702  437  789 
703  565  462 
704  969  0   
705  975  30  
706  466  250 
707  486  249 
708  884  623 
709  738  590 
710  653  439 
711  630  453 
712  797  556 
713  682  764 
714  258  455 
715  316  132 
716  63   498 
717  534  740 
718  614  728 
719  559  740 
720  637  708 
721  233  262 
722  52   557 
723  681  558 
724  960  14  
725  410  905 
726  948  170 
727  697  801 
728  789  651 
729  901  321 
730  710  105 
731  575  730 
732  544  689 
733  203  236 
734  845  309 
735  53   797 
736  707  531 
737  998  22  
738  216  651 
739  656  920 
740  698  761 
741  156  405 
742  722  555 
743  789  105 
744  382  814 
745  360  703 
746  596  466 
747  390  15  
748  359  905 
749  412  741 
750  438  621 
751  872  842 
752  752  442 
753  532  773 
754  719  727 
755  571  483 
756  610  794 
757  592  497 
758  517  402 
759  893  31  
760  592  758 
761  295  624 
762  601  771 
763  68   190 
764  343  825 
765  535  447 
766  724  500 
767  373  194 
768  461  543 
769  371  20  
770  66   487 
771  164  808 
772  715  680 
773  534  273 
774  822  870 
775  823  656 
776  970  189 
777  422  115 
778  632  286 
779  940  175 
780  604  860 
781  940  63  
782  628  544 
783  538  638 
784  445  632 
785  985  22  
786  807  757 
787  315  373 
788  361  668 
789  3    816 
790  620  866 
791  894  346 
792  640  917 
793  684  12  
794  584  605 
795  65   84  
796  551  395 
797  744  771 
798  985  676 
799  800  470 
800  605  862 
801  436  417 
802  679  295 
803  632  515 
804  874  865 
805  658  451 
806  268  247 
807  605  719 
808  533  589 
809  192  441 
810  456  268 
811  987  45  
812  597  534 
813  645  58  
814  495  839 
815  316  45  
816  762  77  
817  563  20  
818  987  407 
819  733  135 
820  868  131 
821  977  619 
822  884  132 
823  61   432 
824  584  802 
825  586  522 
826  642  1000
827  575  748 
828  606  775 
829  447  786 
830  401  596 
831  733  587 
832  627  559 
833  586  847 
834  626  333 
835  776  577 
836  960  238 
837  636  489 
838  908  70  
839  654  987 
840  993  106 
841  994  88  
842  355  548 
843  563  680 
844  886  912 
845  547  819 
846  416  287 
847  970  32  
848  537  438 
849  10   709 
850  443  743 
851  949  28  
852  613  820 
853  240  23  
854  221  107 
855  648  553 
856  939  90  
857  668  436 
858  696  821 
859  550  526 
860  501  534 
861  675  613 
862  935  634 
863  651  854 
864  963  373 
865  621  732 
866  734  350 
867  705  447 
868  659  765 
869  771  651 
870  685  817 
871  728  759 
872  505  578 
873  141  41  
874  698  460 
875  594  727 
876  129  466 
877  671  499 
878  372  600 
879  959  963 
880  357  540 
881  784  914 
882  488  495 
883  659  661 
884  731  608 
885  471  766 
886  512  166 
887  626  60  
888  672  918 
889  492  736 
890  888  4   
891  567  513 
892  363  408 
893  551  715 
894  722  781 
895  85   853 
896  34   862 
897  465  684 
898  691  407 
899  584  688 
900  198  560 
901  787  501 
902  116  925 
903  720  491 
904  496  938 
905  768  913 
906  921  527 
907  375  377 
908  605  653 
909  883  586 
910  977  324 
911  775  468 
912  430  805 
913  303  537 
914  589  804 
915  987  170 
916  294  30  
917  705  645 
918  575  566 
919  62   912 
920  581  731 
921  675  455 
922  280  893 
923  649  513 
924  869  80  
925  544  372 
926  176  617 
927  670  937 
928  270  856 
929  879  139 
930  783  781 
931  943  485 
932  727  408 
933  802  644 
934  146  195 
935  975  789 
936  908  24  
937  676  729 
938  559  721 
939  807  262 
940  630  592 
941  668  181 
942  572  819 
943  961  86  
944  1000 23  
945  592  636 
946  529  657 
947  232  565 
948  875  861 
949  548  538 
950  349  227 
951  77   617 
952  250  344 
953  196  39  
954  145  201 
955  560  770 
956  982  146 
957  666  505 
958  978  311 
959  631  531 
960  834  326 
961  470  812 
962  771  331 
963  620  458 
964  599  787 
965  835  55  
966  874  6   
967  125  971 
968  697  186 
969  761  546 
970  175  972 
971  627  571 
972  484  781 
973  675  991 
974  96   488 
975  943  214 
976  145  960 
977  721  511 
978  619  692 
979  607  714 
980  592  807 
981  577  886 
982  735  566 
983  956  161 
984  375  966 
985  765  90  
986  699  820 
987  644  518 
988  223  530 
989  870  673 
990  367  356 
991  813  720 
992  581  308 
993  607  959 
994  518  453 
995  603  137 
996  543  530 
997  280  824 
998  623  625 
999  985  12  
1000 498  693 
1001 975  85  
1002 648  720 
1003 411  961 
1004 507  687 
1005 564  499 
1006 54   575 
1007 538  821 
1008 613  479 
1009 595  755 
1010 942  613 
1011 709  497 
1012 550  739 
1013 38   258 
1014 731  189 
1015 969  45  
1016 627  691 
1017 973  88  
1018 375  872 
1019 623  415 
1020 998  51  
1021 709  361 
1022 592  771 
1023 943  413 
1024 429  50  
1025 607  479 
1026 847  108 
1027 641  763 
1028 256  561 
1029 652  400 
1030 601  789 
1031 570  239 
1032 661  719 
1033 21   250 
1034 645  517 
1035 696  697 
1036 716  895 
1037 844  286 
1038 57   564 
1039 594  530 
1040 423  854 
1041 425  627 
1042 873  428 
1043 393  135 
1044 892  69  
1045 929  632 
1046 508  540 
1047 596  833 
1048 693  458 
1049 739  519 
1050 519  759 
1051 977  15  
1052 997  68  
1053 259  949 
1054 593  853 
1055 715  781 
1056 983  189 
1057 516  586 
1058 961  602 
1059 808  382 
1060 827  881 
1061 701  237 
1062 794  106 
1063 635  767 
1064 523  498 
1065 515  204 
1066 222  366 
1067 256  702 
1068 420  282 
1069 961  930 
1070 853  185 
1071 655  503 
1072 111  320 
1073 542  531 
1074 9    16  
1075 40   698 
1076 222  27  
1077 472  378 
1078 645  495 
1079 707  605 
1080 663  714 
1081 508  642 
1082 808  18  
1083 699  344 
1084 955  377 
1085 984  45  
1086 740  370 
1087 369  369 
1088 559  118 
1089 29   488 
1090 17   288 
1091 609  623 
1092 794  286 
1093 122  199 
1094 491  845 
1095 310  244 
1096 920  30  
1097 594  792 
1098 828  855 
1099 297  822 
1100 619  800 
1101 782  794 
1102 793  54  
1103 273  765 
1104 974  102 
1105 601  786 
1106 249  884 
1107 911  46  
1108 328  357 
1109 797  360 
1110 744  524 
1111 646  472 
1112 363  845 
1113 219  890 
1114 438  983 
1115 648  631 
1116 578  831 
1117 747  448 
1118 496  595 
1119 498  811 
1120 669  699 
1121 907  551 
1122 692  279 
1123 41   182 
1124 965  224 
1125 677  470 
1126 628  847 
1127 47   345 
1128 931  746 
1129 588  531 
1130 963  81  
1131 102  727 
1132 838  817 
1133 741  912 
1134 722  578 
1135 478  899 
1136 634  288 
1137 317  596 
1138 691  561 
1139 547  427 
1140 828  909 
1141 623  537 
1142 28   339 
1143 985  445 
1144 458  842 
1145 496  808 
1146 758  560 
1147 853  254 
1148 875  161 
1149 604  795 
1150 825  994 
1151 893  454 
1152 672  725 
1153 514  735 
1154 557  636 
1155 205  716 
1156 744  609 
1157 122  445 
1158 600  796 
1159 125  277 
1160 863  429 
1161 929  148 
1162 616  714 
1163 599  738 
1164 670  737 
1165 754  101 
1166 647  441 
1167 44   325 
1168 337  469 
1169 144  371 
1170 625  475 
1171 236  905 
1172 336  26  
1173 557  791 
1174 896  824 
1175 94   683 
1176 610  448 
1177 578  771 
1178 781  809 
1179 447  254 
1180 128  182 
1181 57   203 
1182 538  833 
1183 686  441 
1184 730  34  
1185 876  402 
1186 658  605 
1187 715  532 
1188 558  905 
1189 391  756 
1190 604  702 
1191 596  766 
1192 697  482 
1193 928  48  
1194 909  114 
1195 876  235 
1196 609  491 
1197 564  857 
1198 518  207 
1199 898  116 
1200 692  498 
1201 804  788 
1202 269  757 
1203 308  507 
1204 789  953 
1205 479  569 
1206 813  9   
1207 961  971 
1208 694  308 
1209 626  726 
1210 675  690 
1211 584  776 
1212 473  847 
1213 595  491 
1214 373  942 
1215 553  533 
1216 475  595 
1217 666  66  
1218 616  520 
1219 474  44  
1220 476  344 
1221 956  21  
1222 921  48  
1223 558  778 
1224 668  145 
1225 908  640 
1226 510  380 
1227 578  729 
1228 563  362 
1229 709  503 
1230 383  253 
1231 728  783 
1232 127  248 
1233 972  80  
1234 723  20  
1235 927  102 
1236 624  511 
1237 642  242 
1238 884  596 
1239 223  400 
1240 776  479 
1241 486  365 
1242 676  376 
1243 271  627 
1244 36   31  
1245 627  404 
1246 596  634 
1247 669  135 
1248 411  238 
1249 462  373 
1250 488  539 
1251 579  789 
1252 880  44  
1253 631  522 
1254 957  424 
1255 609  776 
1256 640  774 
1257 56   867 
1258 56   408 
1259 572  782 
1260 701  504 
1261 410  288 
1262 562  606 
1263 513  771 
1264 644  709 
1265 573  233 
1266 599  485 
1267 623  201 
1268 730  724 
1269 895  339 
1270 809  662 
1271 977  21  
1272 586  739 
1273 271  577 
1274 166  247 
1275 577  810 
1276 561  560 
1277 637  474 
1278 678  713 
1279 919  554 
1280 862  659 
1281 955  31  
1282 663  781 
1283 481  481 
1284 320  823 
1285 284  95  
1286 482  909 
1287 789  13  
1288 997  293 
1289 589  773 
1290 23   725 
1291 660  826 
1292 68   155 
1293 551  734 
1294 758  586 
1295 974  18  
1296 434  169 
1297 635  798 
1298 784  767 
1299 952  581 
1300 687  842 
1301 325  162 
1302 729  579 
1303 427  805 
1304 477  813 
1305 685  926 
1306 689  784 
1307 233  428 
1308 602  754 
1309 430  715 
1310 93   509 
1311 284  53  
1312 786  284 
1313 631  786 
1314 734  692 
1315 53   860 
1316 630  485 
1317 654  771 
1318 607  426 
1319 461  556 
1320 227  259 
1321 825  167 
1322 333  584 
1323 487  162 
1324 551  899 
1325 375  823 
1326 301  688 
1327 485  750 
1328 344  462 
1329 876  607 
1330 698  734 
1331 272  954 
1332 592  847 
1333 449  363 
1334 538  182 
1335 997  345 
1336 980  939 
1337 782  565 
1338 532  825 
1339 1000 919 
1340 752  854 
1341 568  315 
1342 899  53  
1343 370  935 
1344 829  737 
1345 317  888 
1346 729  803 
1347 943  18  
1348 596  579 
1349 504  539 
1350 766  398 
1351 641  527 
1352 215  788 
1353 346  933 
1354 242  104 
1355 479  564 
1356 802  762 
1357 965  94  
1358 413  305 
1359 779  221 
1360 653  870 
1361 764  418 
1362 609  512 
1363 481  31  
1364 670  474 
1365 268  526 
1366 838  61  
1367 145  875 
1368 573  160 
1369 613  398 
1370 759  675 
1371 391  287 
1372 551  584 
1373 678  485 
1374 542  789 
1375 579  781 
1376 275  879 
1377 939  661 
1378 410  422 
1379 828  893 
1380 124  489 
1381 282  630 
1382 125  396 
1383 568  498 
1384 521  694 
1385 596  779 
1386 740  813 
1387 482  557 
1388 937  409 
1389 702  582 
1390 351  902 
1391 600  487 
1392 295  915 
1393 599  524 
1394 628  473 
1395 853  876 
1396 934  73  
1397 169  193 
1398 189  595 
1399 484  356 
1400 182  434 
1401 203  724 
1402 701  163 
1403 450  295 
1404 552  567 
1405 772  776 
1406 396  784 
1407 0    233 
1408 668  728 
1409 871  341 
1410 980  505 
1411 508  861 
1412 967  123 
1413 644  763 
1414 657  813 
1415 692  751 
1416 847  598 
1417 45   334 
1418 820  286 
1419 77   254 
1420 627  780 
1421 449  900 
1422 763  749 
1423 270  907 
1424 35   2   
1425 533  442 
1426 644  851 
1427 690  730 
1428 801  293 
1429 747  858 
1430 551  671 
1431 517  417 
1432 701  324 
1433 978  225 
1434 136  50  
1435 871  419 
1436 583  495 
1437 536  315 
1438 278  366 
1439 647  740 
1440 732  391 
1441 697  598 
1442 97   992 
1443 634  692 
1444 412  535 
1445 767  880 
1446 970  25  
1447 590  731 
1448 849  118 
1449 23   570 
1450 617  671 
1451 653  585 
1452 526  233 
1453 268  118 
1454 641  447 
1455 988  18  
1456 795  725 
1457 586  533 
1458 805  307 
1459 578  481 
1460 675  403 
1461 606  697 
1462 646  528 
1463 496  844 
1464 126  265 
1465 588  460 
1466 68   532 
1467 680  347 
1468 625  559 
1469 610  784 
1470 522  356 
1471 579  759 
1472 610  598 
1473 648  722 
1474 594  402 
1475 832  137 
1476 598  416 
1477 125  679 
1478 660  662 
1479 478  823 
1480 999  132 
1481 657  888 
1482 615  884 
1483 468  569 
1484 607  464 
1485 593  500 
1486 611  533 
1487 689  696 
1488 947  64  
1489 573  433 
1490 297  283 
1491 595  767 
1492 585  968 
1493 695  884 
1494 844  27  
1495 787  340 
1496 543  772 
1497 989  24  
1498 671  828 
1499 543  523 
1500 271  793 
1501 557  731 
1502 779  896 
1503 58   295 
1504 733  591 
1505 681  422 
1506 577  952 
1507 981  96  
1508 568  624 
1509 492  422 
1510 769  868 
1511 974  1   
1512 633  539 
1513 631  559 
1514 534  313 
1515 523  511 
1516 987  39  
1517 623  765 
1518 609  745 
1519 702  83  
1520 743  829 
1521 665  787 
1522 596  222 
1523 137  540 
1524 945  482 
1525 514  748 
1526 913  844 
1527 606  414 
1528 201  114 
1529 627  859 
1530 133  180 
1531 190  63  
1532 709  544 
1533 908  464 
1534 182  672 
1535 881  420 
1536 664  532 
1537 250  739 
1538 202  590 
1539 857  759 
1540 612  936 
1541 672  103 
1542 637  491 
1543 589  829 
1544 990  115 
1545 866  165 
1546 597  504 
1547 84   218 
1548 912  340 
1549 534  888 
1550 653  494 
1551 585  885 
1552 89   435 
1553 487  600 
1554 432  312 
1555 363  205 
1556 536  808 
1557 632  657 
1558 783  902 
1559 290  899 
1560 591  73  
1561 723  449 
DEMAND_SECTION
1    0   
2    1   
3    1   
4    1   
5    1   
6    1   
7    1   
8    1   
9    1   
10   1   
11   1   
12   1   
13   1   
14   1   
15   1   
16   1   
17   1   
18   1   
19   1   
20   1   
21   1   
22   1   
23   1   
24   1   
25   1   
26   1   
27   1   
28   1   
29   1   
30   1   
31   1   
32   1   
33   1   
34   1   
35   1   
36   1   
37   1   
38   1   
39   1   
40   1   
41   1   
42   1   
43   1   
44   1   
45   1   
46   1   
47   1   
48   1   
49   1   
50   1   
51   1   
52   1   
53   1   
54   1   
55   1   
56   1   
57   1   
58   1   
59   1   
60   1   
61   1   
62   1   
63   1   
64   1   
65   1   
66   1   
67   1   
68   1   
69   1   
70   1   
71   1   
72   1   
73   1   
74   1   
75   1   
76   1   
77   1   
78   1   
79   1   
80   1   
81   1   
82   1   
83   1   
84   1   
85   1   
86   1   
87   1   
88   1   
89   1   
90   1   
91   1   
92   1   
93   1   
94   1   
95   1   
96   1   
97   1   
98   1   
99   1   
100  1   
101  1   
102  1   
103  1   
104  1   
105  1   
106  1   
107  1   
108  1   
109  1   
110  1   
111  1   
112  1   
113  1   
114  1   
115  1   
116  1   
117  1   
118  1   
119  1   
120  1   
121  1   
122  1   
123  1   
124  1   
125  1   
126  1   
127  1   
128  1   
129  1   
130  1   
131  1   
132  1   
133  1   
134  1   
135  1   
136  1   
137  1   
138  1   
139  1   
140  1   
141  1   
142  1   
143  1   
144  1   
145  1   
146  1   
147  1   
148  1   
149  1   
150  1   
151  1   
152  1   
153  1   
154  1   
155  1   
156  1   
157  1   
158  1   
159  1   
160  1   
161  1   
162  1   
163  1   
164  1   
165  1   
166  1   
167  1   
168  1   
169  1   
170  1   
171  1   
172  1   
173  1   
174  1   
175  1   
176  1   
177  1   
178  1   
179  1   
180  1   
181  1   
182  1   
183  1   
184  1   
185  1   
186  1   
187  1   
188  1   
189  1   
190  1   
191  1   
192  1   
193  1   
194  1   
195  1   
196  1   
197  1   
198  1   
199  1   
200  1   
201  1   
202  1   
203  1   
204  1   
205  1   
206  1   
207  1   
208  1   
209  1   
210  1   
211  1   
212  1   
213  1   
214  1   
215  1   
216  1   
217  1   
218  1   
219  1   
220  1   
221  1   
222  1   
223  1   
224  1   
225  1   
226  1   
227  1   
228  1   
229  1   
230  1   
231  1   
232  1   
233  1   
234  1   
235  1   
236  1   
237  1   
238  1   
239  1   
240  1   
241  1   
242  1   
243  1   
244  1   
245  1   
246  1   
247  1   
248  1   
249  1   
250  1   
251  1   
252  1   
253  1   
254  1   
255  1   
256  1   
257  1   
258  1   
259  1   
260  1   
261  1   
262  1   
263  1   
264  1   
265  1   
266  1   
267  1   
268  1   
269  1   
270  1   
271  1   
272  1   
273  1   
274  1   
275  1   
276  1   
277  1   
278  1   
279  1   
280  1   
281  1   
282  1   
283  1   
284  1   
285  1   
286  1   
287  1   
288  1   
289  1   
290  1   
291  1   
292  1   
293  1   
294  1   
295  1   
296  1   
297  1   
298  1   
299  1   
300  1   
301  1   
302  1   
303  1   
304  1   
305  1   
306  1   
307  1   
308  1   
309  1   
310  1   
311  1   
312  1   
313  1   
314  1   
315  1   
316  1   
317  1   
318  1   
319  1   
320  1   
321  1   
322  1   
323  1   
324  1   
325  1   
326  1   
327  1   
328  1   
329  1   
330  1   
331  1   
332  1   
333  1   
334  1   
335  1   
336  1   
337  1   
338  1   
339  1   
340  1   
341  1   
342  1   
343  1   
344  1   
345  1   
346  1   
347  1   
348  1   
349  1   
350  1   
351  1   
352  1   
353  1   
354  1   
355  1   
356  1   
357  1   
358  1   
359  1   
360  1   
361  1   
362  1   
363  1   
364  1   
365  1   
366  1   
367  1   
368  1   
369  1   
370  1   
371  1   
372  1   
373  1   
374  1   
375  1   
376  1   
377  1   
378  1   
379  1   
380  1   
381  1   
382  1   
383  1   
384  1   
385  1   
386  1   
387  1   
388  1   
389  1   
390  1   
391  1   
392  1   
393  1   
394  1   
395  1   
396  1   
397  1   
398  1   
399  1   
400  1   
401  1   
402  1   
403  1   
404  1   
405  1   
406  1   
407  1   
408  1   
409  1   
410  1   
411  1   
412  1   
413  1   
414  1   
415  1   
416  1   
417  1   
418  1   
419  1   
420  1   
421  1   
422  1   
423  1   
424  1   
425  1   
426  1   
427  1   
428  1   
429  1   
430  1   
431  1   
432  1   
433  1   
434  1   
435  1   
436  1   
437  1   
438  1   
439  1   
440  1   
441  1   
442  1   
443  1   
444  1   
445  1   
446  1   
447  1   
448  1   
449  1   
450  1   
451  1   
452  1   
453  1   
454  1   
455  1   
456  1   
457  1   
458  1   
459  1   
460  1   
461  1   
462  1   
463  1   
464  1   
465  1   
466  1   
467  1   
468  1   
469  1   
470  1   
471  1   
472  1   
473  1   
474  1   
475  1   
476  1   
477  1   
478  1   
479  1   
480  1   
481  1   
482  1   
483  1   
484  1   
485  1   
486  1   
487  1   
488  1   
489  1   
490  1   
491  1   
492  1   
493  1   
494  1   
495  1   
496  1   
497  1   
498  1   
499  1   
500  1   
501  1   
502  1   
503  1   
504  1   
505  1   
506  1   
507  1   
508  1   
509  1   
510  1   
511  1   
512  1   
513  1   
514  1   
515  1   
516  1   
517  1   
518  1   
519  1   
520  1   
521  1   
522  1   
523  1   
524  1   
525  1   
526  1   
527  1   
528  1   
529  1   
530  1   
531  1   
532  1   
533  1   
534  1   
535  1   
536  1   
537  1   
538  1   
539  1   
540  1   
541  1   
542  1   
543  1   
544  1   
545  1   
546  1   
547  1   
548  1   
549  1   
550  1   
551  1   
552  1   
553  1   
554  1   
555  1   
556  1   
557  1   
558  1   
559  1   
560  1   
561  1   
562  1   
563  1   
564  1   
565  1   
566  1   
567  1   
568  1   
569  1   
570  1   
571  1   
572  1   
573  1   
574  1   
575  1   
576  1   
577  1   
578  1   
579  1   
580  1   
581  1   
582  1   
583  1   
584  1   
585  1   
586  1   
587  1   
588  1   
589  1   
590  1   
591  1   
592  1   
593  1   
594  1   
595  1   
596  1   
597  1   
598  1   
599  1   
600  1   
601  1   
602  1   
603  1   
604  1   
605  1   
606  1   
607  1   
608  1   
609  1   
610  1   
611  1   
612  1   
613  1   
614  1   
615  1   
616  1   
617  1   
618  1   
619  1   
620  1   
621  1   
622  1   
623  1   
624  1   
625  1   
626  1   
627  1   
628  1   
629  1   
630  1   
631  1   
632  1   
633  1   
634  1   
635  1   
636  1   
637  1   
638  1   
639  1   
640  1   
641  1   
642  1   
643  1   
644  1   
645  1   
646  1   
647  1   
648  1   
649  1   
650  1   
651  1   
652  1   
653  1   
654  1   
655  1   
656  1   
657  1   
658  1   
659  1   
660  1   
661  1   
662  1   
663  1   
664  1   
665  1   
666  1   
667  1   
668  1   
669  1   
670  1   
671  1   
672  1   
673  1   
674  1   
675  1   
676  1   
677  1   
678  1   
679  1   
680  1   
681  1   
682  1   
683  1   
684  1   
685  1   
686  1   
687  1   
688  1   
689  1   
690  1   
691  1   
692  1   
693  1   
694  1   
695  1   
696  1   
697  1   
698  1   
699  1   
700  1   
701  1   
702  1   
703  1   
704  1   
705  1   
706  1   
707  1   
708  1   
709  1   
710  1   
711  1   
712  1   
713  1   
714  1   
715  1   
716  1   
717  1   
718  1   
719  1   
720  1   
721  1   
722  1   
723  1   
724  1   
725  1   
726  1   
727  1   
728  1   
729  1   
730  1   
731  1   
732  1   
733  1   
734  1   
735  1   
736  1   
737  1   
738  1   
739  1   
740  1   
741  1   
742  1   
743  1   
744  1   
745  1   
746  1   
747  1   
748  1   
749  1   
750  1   
751  1   
752  1   
753  1   
754  1   
755  1   
756  1   
757  1   
758  1   
759  1   
760  1   
761  1   
762  1   
763  1   
764  1   
765  1   
766  1   
767  1   
768  1   
769  1   
770  1   
771  1   
772  1   
773  1   
774  1   
775  1   
776  1   
777  1   
778  1   
779  1   
780  1   
781  1   
782  1   
783  1   
784  1   
785  1   
786  1   
787  1   
788  1   
789  1   
790  1   
791  1   
792  1   
793  1   
794  1   
795  1   
796  1   
797  1   
798  1   
799  1   
800  1   
801  1   
802  1   
803  1   
804  1   
805  1   
806  1   
807  1   
808  1   
809  1   
810  1   
811  1   
812  1   
813  1   
814  1   
815  1   
816  1   
817  1   
818  1   
819  1   
820  1   
821  1   
822  1   
823  1   
824  1   
825  1   
826  1   
827  1   
828  1   
829  1   
830  1   
831  1   
832  1   
833  1   
834  1   
835  1   
836  1   
837  1   
838  1   
839  1   
840  1   
841  1   
842  1   
843  1   
844  1   
845  1   
846  1   
847  1   
848  1   
849  1   
850  1   
851  1   
852  1   
853  1   
854  1   
855  1   
856  1   
857  1   
858  1   
859  1   
860  1   
861  1   
862  1   
863  1   
864  1   
865  1   
866  1   
867  1   
868  1   
869  1   
870  1   
871  1   
872  1   
873  1   
874  1   
875  1   
876  1   
877  1   
878  1   
879  1   
880  1   
881  1   
882  1   
883  1   
884  1   
885  1   
886  1   
887  1   
888  1   
889  1   
890  1   
891  1   
892  1   
893  1   
894  1   
895  1   
896  1   
897  1   
898  1   
899  1   
900  1   
901  1   
902  1   
903  1   
904  1   
905  1   
906  1   
907  1   
908  1   
909  1   
910  1   
911  1   
912  1   
913  1   
914  1   
915  1   
916  1   
917  1   
918  1   
919  1   
920  1   
921  1   
922  1   
923  1   
924  1   
925  1   
926  1   
927  1   
928  1   
929  1   
930  1   
931  1   
932  1   
933  1   
934  1   
935  1   
936  1   
937  1   
938  1   
939  1   
940  1   
941  1   
942  1   
943  1   
944  1   
945  1   
946  1   
947  1   
948  1   
949  1   
950  1   
951  1   
952  1   
953  1   
954  1   
955  1   
956  1   
957  1   
958  1   
959  1   
960  1   
961  1   
962  1   
963  1   
964  1   
965  1   
966  1   
967  1   
968  1   
969  1   
970  1   
971  1   
972  1   
973  1   
974  1   
975  1   
976  1   
977  1   
978  1   
979  1   
980  1   
981  1   
982  1   
983  1   
984  1   
985  1   
986  1   
987  1   
988  1   
989  1   
990  1   
991  1   
992  1   
993  1   
994  1   
995  1   
996  1   
997  1   
998  1   
999  1   
1000 1   
1001 1   
1002 1   
1003 1   
1004 1   
1005 1   
1006 1   
1007 1   
1008 1   
1009 1   
1010 1   
1011 1   
1012 1   
1013 1   
1014 1   
1015 1   
1016 1   
1017 1   
1018 1   
1019 1   
1020 1   
1021 1   
1022 1   
1023 1   
1024 1   
1025 1   
1026 1   
1027 1   
1028 1   
1029 1   
1030 1   
1031 1   
1032 1   
1033 1   
1034 1   
1035 1   
1036 1   
1037 1   
1038 1   
1039 1   
1040 1   
1041 1   
1042 1   
1043 1   
1044 1   
1045 1   
1046 1   
1047 1   
1048 1   
1049 1   
1050 1   
1051 1   
1052 1   
1053 1   
1054 1   
1055 1   
1056 1   
1057 1   
1058 1   
1059 1   
1060 1   
1061 1   
1062 1   
1063 1   
1064 1   
1065 1   
1066 1   
1067 1   
1068 1   
1069 1   
1070 1   
1071 1   
1072 1   
1073 1   
1074 1   
1075 1   
1076 1   
1077 1   
1078 1   
1079 1   
1080 1   
1081 1   
1082 1   
1083 1   
1084 1   
1085 1   
1086 1   
1087 1   
1088 1   
1089 1   
1090 1   
1091 1   
1092 1   
1093 1   
1094 1   
1095 1   
1096 1   
1097 1   
1098 1   
1099 1   
1100 1   
1101 1   
1102 1   
1103 1   
1104 1   
1105 1   
1106 1   
1107 1   
1108 1   
1109 1   
1110 1   
1111 1   
1112 1   
1113 1   
1114 1   
1115 1   
1116 1   
1117 1   
1118 1   
1119 1   
1120 1   
1121 1   
1122 1   
1123 1   
1124 1   
1125 1   
1126 1   
1127 1   
1128 1   
1129 1   
1130 1   
1131 1   
1132 1   
1133 1   
1134 1   
1135 1   
1136 1   
1137 1   
1138 1   
1139 1   
1140 1   
1141 1   
1142 1   
1143 1   
1144 1   
1145 1   
1146 1   
1147 1   
1148 1   
1149 1   
1150 1   
1151 1   
1152 1   
1153 1   
1154 1   
1155 1   
1156 1   
1157 1   
1158 1   
1159 1   
1160 1   
1161 1   
1162 1   
1163 1   
1164 1   
1165 1   
1166 1   
1167 1   
1168 1   
1169 1   
1170 1   
1171 1   
1172 1   
1173 1   
1174 1   
1175 1   
1176 1   
1177 1   
1178 1   
1179 1   
1180 1   
1181 1   
1182 1   
1183 1   
1184 1   
1185 1   
1186 1   
1187 1   
1188 1   
1189 1   
1190 1   
1191 1   
1192 1   
1193 1   
1194 1   
1195 1   
1196 1   
1197 1   
1198 1   
1199 1   
1200 1   
1201 1   
1202 1   
1203 1   
1204 1   
1205 1   
1206 1   
1207 1   
1208 1   
1209 1   
1210 1   
1211 1   
1212 1   
1213 1   
1214 1   
1215 1   
1216 1   
1217 1   
1218 1   
1219 1   
1220 1   
1221 1   
1222 1   
1223 1   
1224 1   
1225 1   
1226 1   
1227 1   
1228 1   
1229 1   
1230 1   
1231 1   
1232 1   
1233 1   
1234 1   
1235 1   
1236 1   
1237 1   
1238 1   
1239 1   
1240 1   
1241 1   
1242 1   
1243 1   
1244 1   
1245 1   
1246 1   
1247 1   
1248 1   
1249 1   
1250 1   
1251 1   
1252 1   
1253 1   
1254 1   
1255 1   
1256 1   
1257 1   
1258 1   
1259 1   
1260 1   
1261 1   
1262 1   
1263 1   
1264 1   
1265 1   
1266 1   
1267 1   
1268 1   
1269 1   
1270 1   
1271 1   
1272 1   
1273 1   
1274 1   
1275 1   
1276 1   
1277 1   
1278 1   
1279 1   
1280 1   
1281 1   
1282 1   
1283 1   
1284 1   
1285 1   
1286 1   
1287 1   
1288 1   
1289 1   
1290 1   
1291 1   
1292 1   
1293 1   
1294 1   
1295 1   
1296 1   
1297 1   
1298 1   
1299 1   
1300 1   
1301 1   
1302 1   
1303 1   
1304 1   
1305 1   
1306 1   
1307 1   
1308 1   
1309 1   
1310 1   
1311 1   
1312 1   
1313 1   
1314 1   
1315 1   
1316 1   
1317 1   
1318 1   
1319 1   
1320 1   
1321 1   
1322 1   
1323 1   
1324 1   
1325 1   
1326 1   
1327 1   
1328 1   
1329 1   
1330 1   
1331 1   
1332 1   
1333 1   
1334 1   
1335 1   
1336 1   
1337 1   
1338 1   
1339 1   
1340 1   
1341 1   
1342 1   
1343 1   
1344 1   
1345 1   
1346 1   
1347 1   
1348 1   
1349 1   
1350 1   
1351 1   
1352 1   
1353 1   
1354 1   
1355 1   
1356 1   
1357 1   
1358 1   
1359 1   
1360 1   
1361 1   
1362 1   
1363 1   
1364 1   
1365 1   
1366 1   
1367 1   
1368 1   
1369 1   
1370 1   
1371 1   
1372 1   
1373 1   
1374 1   
1375 1   
1376 1   
1377 1   
1378 1   
1379 1   
1380 1   
1381 1   
1382 1   
1383 1   
1384 1   
1385 1   
1386 1   
1387 1   
1388 1   
1389 1   
1390 1   
1391 1   
1392 1   
1393 1   
1394 1   
1395 1   
1396 1   
1397 1   
1398 1   
1399 1   
1400 1   
1401 1   
1402 1   
1403 1   
1404 1   
1405 1   
1406 1   
1407 1   
1408 1   
1409 1   
1410 1   
1411 1   
1412 1   
1413 1   
1414 1   
1415 1   
1416 1   
1417 1   
1418 1   
1419 1   
1420 1   
1421 1   
1422 1   
1423 1   
1424 1   
1425 1   
1426 1   
1427 1   
1428 1   
1429 1   
1430 1   
1431 1   
1432 1   
1433 1   
1434 1   
1435 1   
1436 1   
1437 1   
1438 1   
1439 1   
1440 1   
1441 1   
1442 1   
1443 1   
1444 1   
1445 1   
1446 1   
1447 1   
1448 1   
1449 1   
1450 1   
1451 1   
1452 1   
1453 1   
1454 1   
1455 1   
1456 1   
1457 1   
1458 1   
1459 1   
1460 1   
1461 1   
1462 1   
1463 1   
1464 1   
1465 1   
1466 1   
1467 1   
1468 1   
1469 1   
1470 1   
1471 1   
1472 1   
1473 1   
1474 1   
1475 1   
1476 1   
1477 1   
1478 1   
1479 1   
1480 1   
1481 1   
1482 1   
1483 1   
1484 1   
1485 1   
1486 1   
1487 1   
1488 1   
1489 1   
1490 1   
1491 1   
1492 1   
1493 1   
1494 1   
1495 1   
1496 1   
1497 1   
1498 1   
1499 1   
1500 1   
1501 1   
1502 1   
1503 1   
1504 1   
1505 1   
1506 1   
1507 1   
1508 1   
1509 1   
1510 1   
1511 1   
1512 1   
1513 1   
1514 1   
1515 1   
1516 1   
1517 1   
1518 1   
1519 1   
1520 1   
1521 1   
1522 1   
1523 1   
1524 1   
1525 1   
1526 1   
1527 1   
1528 1   
1529 1   
1530 1   
1531 1   
1532 1   
1533 1   
1534 1   
1535 1   
1536 1   
1537 1   
1538 1   
1539 1   
1540 1   
1541 1   
1542 1   
1543 1   
1544 1   
1545 1   
1546 1   
1547 1   
1548 1   
1549 1   
1550 1   
1551 1   
1552 1   
1553 1   
1554 1   
1555 1   
1556 1   
1557 1   
1558 1   
1559 1   
1560 1   
1561 1   
DEPOT_SECTION
1
-1
EOF
